p cnf 60 219
-5 -2 0
-5 -4 0
2 4 5 0
-2 5 -6 0
2 -5 -6 0
-2 -5 6 0
2 5 6 0
-8 6 0
-8 -7 0
-6 7 8 0
9 -3 0
9 -8 0
3 8 -9 0
2 9 -10 0
-2 -9 -10 0
2 -9 10 0
-2 9 10 0
11 1 0
11 -10 0
-1 10 -11 0
12 5 -13 0
-12 -5 -13 0
12 -5 13 0
-12 5 13 0
15 -14 0
15 -1 0
14 1 -15 0
-15 -1 -16 0
15 1 -16 0
-15 1 16 0
15 -1 16 0
-14 -8 -17 0
14 8 -17 0
-14 8 17 0
14 -8 17 0
-19 18 0
-19 4 0
-18 -4 19 0
-20 -17 0
-20 19 0
17 -19 20 0
21 -16 0
21 20 0
16 -20 -21 0
22 -13 0
22 21 0
13 -21 -22 0
-18 -3 -23 0
18 3 -23 0
-18 3 23 0
18 -3 23 0
23 -9 -24 0
-23 9 -24 0
23 9 24 0
-23 -9 24 0
-15 -25 -26 0
15 25 -26 0
-15 25 26 0
15 -25 26 0
27 24 0
27 -26 0
-24 26 -27 0
-28 6 0
-28 9 0
-6 -9 28 0
29 28 0
29 -8 0
-28 8 -29 0
-30 25 0
-30 -7 0
-25 7 30 0
-31 29 0
-31 -30 0
-29 30 31 0
-32 27 0
-32 -31 0
-27 31 32 0
33 22 0
33 32 0
-22 -32 -33 0
34 -11 0
34 -33 0
11 33 -34 0
36 -3 0
36 35 0
3 -35 -36 0
-37 2 0
-37 36 0
-2 -36 37 0
38 18 0
38 15 0
-18 -15 -38 0
-15 38 -39 0
15 -38 -39 0
-15 -38 39 0
15 38 39 0
-39 10 -40 0
39 -10 -40 0
-39 -10 40 0
39 10 40 0
41 40 0
41 -1 0
-40 1 -41 0
1 -35 -42 0
-1 35 -42 0
1 35 42 0
-1 -35 42 0
-43 41 0
-43 -42 0
-41 42 43 0
-44 -37 0
-44 -43 0
37 43 44 0
-25 1 -45 0
25 -1 -45 0
-25 -1 45 0
25 1 45 0
-44 45 -46 0
44 -45 -46 0
-44 -45 46 0
44 45 46 0
-5 -30 -47 0
5 30 -47 0
-5 30 47 0
5 -30 47 0
48 46 0
48 -47 0
-46 47 -48 0
49 2 0
49 -29 0
-2 29 -49 0
50 48 0
50 49 0
-48 -49 -50 0
51 -3 0
51 -1 0
3 1 -51 0
51 -5 -52 0
-51 5 -52 0
51 5 52 0
-51 -5 52 0
-53 -36 0
-53 25 0
36 -25 53 0
-53 -51 -54 0
53 51 -54 0
-53 51 54 0
53 -51 54 0
-55 36 0
-55 -4 0
-36 4 55 0
-25 -55 -56 0
25 55 -56 0
-25 55 56 0
25 -55 56 0
57 54 0
57 56 0
-54 -56 -57 0
58 -52 0
58 57 0
52 -57 -58 0
50 58 -59 0
-50 -58 -59 0
50 -58 59 0
-50 58 59 0
60 -34 0
60 -59 0
34 59 -60 0
7 -15 -6 -23 0
-48 11 -56 -40 -32 34 0
55 -1 5 47 0
-19 -47 27 31 40 0
-25 -11 -16 12 34 29 0
-3 38 -28 0
-23 57 8 -12 47 0
34 -14 21 6 -27 0
30 14 -22 -23 1 0
57 25 -30 -45 6 -38 0
14 17 -3 0
-44 -20 34 -36 -27 11 0
43 -2 0
48 36 0
-39 26 27 37 32 46 0
-54 18 0
-59 -44 -51 -35 0
20 -13 16 -52 -48 0
-4 46 10 -21 -55 0
-17 -9 0
-38 58 18 -2 0
14 -51 -34 -54 39 -47 0
-36 -57 56 49 0
49 -11 0
48 -27 -2 22 -29 -45 0
-10 50 -28 0
1 -47 33 -51 46 -35 0
-9 26 -42 -27 0
55 -13 -15 0
40 -5 0
-37 -35 32 8 0
31 -53 60 19 13 48 0
-31 -58 30 50 0
-32 -50 18 -2 9 0
21 13 -22 -50 0
53 -3 23 39 -52 0
41 -33 -51 0
38 52 0
-22 -25 -8 41 31 0
21 42 -51 0
-42 -29 49 0
-30 -59 -60 0
-29 -23 -48 -9 54 -49 0
28 36 3 50 -5 2 0
47 -53 17 -49 0
14 -20 0
26 -6 57 -9 -33 0
15 21 -12 -11 0
-24 55 0
-22 -59 8 -38 45 0
60 0
